c description: Tseitin formula on Random 4-regular graph of 75 vertices, with odd charge
c generator: CNFgen (0.9.2)
c copyright: (C) 2012-2022 Massimo Lauria <massimo.lauria@uniroma1.it>
c url: https://massimolauria.net/cnfgen
c command line: cnfgen tseitin 75 4
c
p cnf 150 600
1 2 3 4 0
1 2 -3 -4 0
1 -2 3 -4 0
1 -2 -3 4 0
-1 2 3 -4 0
-1 2 -3 4 0
-1 -2 3 4 0
-1 -2 -3 -4 0
5 6 7 8 0
5 6 -7 -8 0
5 -6 7 -8 0
5 -6 -7 8 0
-5 6 7 -8 0
-5 6 -7 8 0
-5 -6 7 8 0
-5 -6 -7 -8 0
9 10 11 12 0
9 10 -11 -12 0
9 -10 11 -12 0
9 -10 -11 12 0
-9 10 11 -12 0
-9 10 -11 12 0
-9 -10 11 12 0
-9 -10 -11 -12 0
13 14 15 -16 0
13 14 -15 16 0
13 -14 15 16 0
13 -14 -15 -16 0
-13 14 15 16 0
-13 14 -15 -16 0
-13 -14 15 -16 0
-13 -14 -15 16 0
9 17 18 19 0
9 17 -18 -19 0
9 -17 18 -19 0
9 -17 -18 19 0
-9 17 18 -19 0
-9 17 -18 19 0
-9 -17 18 19 0
-9 -17 -18 -19 0
20 21 22 -23 0
20 21 -22 23 0
20 -21 22 23 0
20 -21 -22 -23 0
-20 21 22 23 0
-20 21 -22 -23 0
-20 -21 22 -23 0
-20 -21 -22 23 0
24 25 26 -27 0
24 25 -26 27 0
24 -25 26 27 0
24 -25 -26 -27 0
-24 25 26 27 0
-24 25 -26 -27 0
-24 -25 26 -27 0
-24 -25 -26 27 0
28 29 30 -31 0
28 29 -30 31 0
28 -29 30 31 0
28 -29 -30 -31 0
-28 29 30 31 0
-28 29 -30 -31 0
-28 -29 30 -31 0
-28 -29 -30 31 0
32 33 34 35 0
32 33 -34 -35 0
32 -33 34 -35 0
32 -33 -34 35 0
-32 33 34 -35 0
-32 33 -34 35 0
-32 -33 34 35 0
-32 -33 -34 -35 0
36 37 38 39 0
36 37 -38 -39 0
36 -37 38 -39 0
36 -37 -38 39 0
-36 37 38 -39 0
-36 37 -38 39 0
-36 -37 38 39 0
-36 -37 -38 -39 0
40 41 42 -43 0
40 41 -42 43 0
40 -41 42 43 0
40 -41 -42 -43 0
-40 41 42 43 0
-40 41 -42 -43 0
-40 -41 42 -43 0
-40 -41 -42 43 0
5 44 45 46 0
5 44 -45 -46 0
5 -44 45 -46 0
5 -44 -45 46 0
-5 44 45 -46 0
-5 44 -45 46 0
-5 -44 45 46 0
-5 -44 -45 -46 0
1 13 47 -48 0
1 13 -47 48 0
1 -13 47 48 0
1 -13 -47 -48 0
-1 13 47 48 0
-1 13 -47 -48 0
-1 -13 47 -48 0
-1 -13 -47 48 0
10 49 50 51 0
10 49 -50 -51 0
10 -49 50 -51 0
10 -49 -50 51 0
-10 49 50 -51 0
-10 49 -50 51 0
-10 -49 50 51 0
-10 -49 -50 -51 0
52 53 54 -55 0
52 53 -54 55 0
52 -53 54 55 0
52 -53 -54 -55 0
-52 53 54 55 0
-52 53 -54 -55 0
-52 -53 54 -55 0
-52 -53 -54 55 0
14 56 57 58 0
14 56 -57 -58 0
14 -56 57 -58 0
14 -56 -57 58 0
-14 56 57 -58 0
-14 56 -57 58 0
-14 -56 57 58 0
-14 -56 -57 -58 0
47 59 60 61 0
47 59 -60 -61 0
47 -59 60 -61 0
47 -59 -60 61 0
-47 59 60 -61 0
-47 59 -60 61 0
-47 -59 60 61 0
-47 -59 -60 -61 0
56 62 63 64 0
56 62 -63 -64 0
56 -62 63 -64 0
56 -62 -63 64 0
-56 62 63 -64 0
-56 62 -63 64 0
-56 -62 63 64 0
-56 -62 -63 -64 0
65 66 67 68 0
65 66 -67 -68 0
65 -66 67 -68 0
65 -66 -67 68 0
-65 66 67 -68 0
-65 66 -67 68 0
-65 -66 67 68 0
-65 -66 -67 -68 0
28 69 70 -71 0
28 69 -70 71 0
28 -69 70 71 0
28 -69 -70 -71 0
-28 69 70 71 0
-28 69 -70 -71 0
-28 -69 70 -71 0
-28 -69 -70 71 0
17 72 73 74 0
17 72 -73 -74 0
17 -72 73 -74 0
17 -72 -73 74 0
-17 72 73 -74 0
-17 72 -73 74 0
-17 -72 73 74 0
-17 -72 -73 -74 0
11 24 29 -62 0
11 24 -29 62 0
11 -24 29 62 0
11 -24 -29 -62 0
-11 24 29 62 0
-11 24 -29 -62 0
-11 -24 29 -62 0
-11 -24 -29 62 0
75 76 77 78 0
75 76 -77 -78 0
75 -76 77 -78 0
75 -76 -77 78 0
-75 76 77 -78 0
-75 76 -77 78 0
-75 -76 77 78 0
-75 -76 -77 -78 0
79 80 81 -82 0
79 80 -81 82 0
79 -80 81 82 0
79 -80 -81 -82 0
-79 80 81 82 0
-79 80 -81 -82 0
-79 -80 81 -82 0
-79 -80 -81 82 0
30 83 84 85 0
30 83 -84 -85 0
30 -83 84 -85 0
30 -83 -84 85 0
-30 83 84 -85 0
-30 83 -84 85 0
-30 -83 84 85 0
-30 -83 -84 -85 0
20 32 86 -87 0
20 32 -86 87 0
20 -32 86 87 0
20 -32 -86 -87 0
-20 32 86 87 0
-20 32 -86 -87 0
-20 -32 86 -87 0
-20 -32 -86 87 0
79 88 89 90 0
79 88 -89 -90 0
79 -88 89 -90 0
79 -88 -89 90 0
-79 88 89 -90 0
-79 88 -89 90 0
-79 -88 89 90 0
-79 -88 -89 -90 0
49 91 92 -93 0
49 91 -92 93 0
49 -91 92 93 0
49 -91 -92 -93 0
-49 91 92 93 0
-49 91 -92 -93 0
-49 -91 92 -93 0
-49 -91 -92 93 0
33 94 95 96 0
33 94 -95 -96 0
33 -94 95 -96 0
33 -94 -95 96 0
-33 94 95 -96 0
-33 94 -95 96 0
-33 -94 95 96 0
-33 -94 -95 -96 0
97 98 99 100 0
97 98 -99 -100 0
97 -98 99 -100 0
97 -98 -99 100 0
-97 98 99 -100 0
-97 98 -99 100 0
-97 -98 99 100 0
-97 -98 -99 -100 0
18 36 65 -91 0
18 36 -65 91 0
18 -36 65 91 0
18 -36 -65 -91 0
-18 36 65 91 0
-18 36 -65 -91 0
-18 -36 65 -91 0
-18 -36 -65 91 0
57 80 101 -102 0
57 80 -101 102 0
57 -80 101 102 0
57 -80 -101 -102 0
-57 80 101 102 0
-57 80 -101 -102 0
-57 -80 101 -102 0
-57 -80 -101 102 0
75 97 103 104 0
75 97 -103 -104 0
75 -97 103 -104 0
75 -97 -103 104 0
-75 97 103 -104 0
-75 97 -103 104 0
-75 -97 103 104 0
-75 -97 -103 -104 0
15 105 106 107 0
15 105 -106 -107 0
15 -105 106 -107 0
15 -105 -106 107 0
-15 105 106 -107 0
-15 105 -106 107 0
-15 -105 106 107 0
-15 -105 -106 -107 0
25 44 81 -88 0
25 44 -81 88 0
25 -44 81 88 0
25 -44 -81 -88 0
-25 44 81 88 0
-25 44 -81 -88 0
-25 -44 81 -88 0
-25 -44 -81 88 0
52 108 109 -110 0
52 108 -109 110 0
52 -108 109 110 0
52 -108 -109 -110 0
-52 108 109 110 0
-52 108 -109 -110 0
-52 -108 109 -110 0
-52 -108 -109 110 0
16 103 111 -112 0
16 103 -111 112 0
16 -103 111 112 0
16 -103 -111 -112 0
-16 103 111 112 0
-16 103 -111 -112 0
-16 -103 111 -112 0
-16 -103 -111 112 0
34 86 111 113 0
34 86 -111 -113 0
34 -86 111 -113 0
34 -86 -111 113 0
-34 86 111 -113 0
-34 86 -111 113 0
-34 -86 111 113 0
-34 -86 -111 -113 0
21 104 114 115 0
21 104 -114 -115 0
21 -104 114 -115 0
21 -104 -114 115 0
-21 104 114 -115 0
-21 104 -114 115 0
-21 -104 114 115 0
-21 -104 -114 -115 0
6 101 105 -116 0
6 101 -105 116 0
6 -101 105 116 0
6 -101 -105 -116 0
-6 101 105 116 0
-6 101 -105 -116 0
-6 -101 105 -116 0
-6 -101 -105 116 0
45 114 117 -118 0
45 114 -117 118 0
45 -114 117 118 0
45 -114 -117 -118 0
-45 114 117 118 0
-45 114 -117 -118 0
-45 -114 117 -118 0
-45 -114 -117 118 0
112 119 120 121 0
112 119 -120 -121 0
112 -119 120 -121 0
112 -119 -120 121 0
-112 119 120 -121 0
-112 119 -120 121 0
-112 -119 120 121 0
-112 -119 -120 -121 0
37 122 123 124 0
37 122 -123 -124 0
37 -122 123 -124 0
37 -122 -123 124 0
-37 122 123 -124 0
-37 122 -123 124 0
-37 -122 123 124 0
-37 -122 -123 -124 0
22 125 126 127 0
22 125 -126 -127 0
22 -125 126 -127 0
22 -125 -126 127 0
-22 125 126 -127 0
-22 125 -126 127 0
-22 -125 126 127 0
-22 -125 -126 -127 0
7 26 53 -128 0
7 26 -53 128 0
7 -26 53 128 0
7 -26 -53 -128 0
-7 26 53 128 0
-7 26 -53 -128 0
-7 -26 53 -128 0
-7 -26 -53 128 0
58 98 116 -122 0
58 98 -116 122 0
58 -98 116 122 0
58 -98 -116 -122 0
-58 98 116 122 0
-58 98 -116 -122 0
-58 -98 116 -122 0
-58 -98 -116 122 0
87 106 129 -130 0
87 106 -129 130 0
87 -106 129 130 0
87 -106 -129 -130 0
-87 106 129 130 0
-87 106 -129 -130 0
-87 -106 129 -130 0
-87 -106 -129 130 0
125 129 131 -132 0
125 129 -131 132 0
125 -129 131 132 0
125 -129 -131 -132 0
-125 129 131 132 0
-125 129 -131 -132 0
-125 -129 131 -132 0
-125 -129 -131 132 0
63 113 133 134 0
63 113 -133 -134 0
63 -113 133 -134 0
63 -113 -133 134 0
-63 113 133 -134 0
-63 113 -133 134 0
-63 -113 133 134 0
-63 -113 -133 -134 0
40 102 126 135 0
40 102 -126 -135 0
40 -102 126 -135 0
40 -102 -126 135 0
-40 102 126 -135 0
-40 102 -126 135 0
-40 -102 126 135 0
-40 -102 -126 -135 0
35 46 119 136 0
35 46 -119 -136 0
35 -46 119 -136 0
35 -46 -119 136 0
-35 46 119 -136 0
-35 46 -119 136 0
-35 -46 119 136 0
-35 -46 -119 -136 0
48 89 137 138 0
48 89 -137 -138 0
48 -89 137 -138 0
48 -89 -137 138 0
-48 89 137 -138 0
-48 89 -137 138 0
-48 -89 137 138 0
-48 -89 -137 -138 0
2 59 120 123 0
2 59 -120 -123 0
2 -59 120 -123 0
2 -59 -120 123 0
-2 59 120 -123 0
-2 59 -120 123 0
-2 -59 120 123 0
-2 -59 -120 -123 0
41 60 66 137 0
41 60 -66 -137 0
41 -60 66 -137 0
41 -60 -66 137 0
-41 60 66 -137 0
-41 60 -66 137 0
-41 -60 66 137 0
-41 -60 -66 -137 0
54 82 121 139 0
54 82 -121 -139 0
54 -82 121 -139 0
54 -82 -121 139 0
-54 82 121 -139 0
-54 82 -121 139 0
-54 -82 121 139 0
-54 -82 -121 -139 0
76 94 107 -108 0
76 94 -107 108 0
76 -94 107 108 0
76 -94 -107 -108 0
-76 94 107 108 0
-76 94 -107 -108 0
-76 -94 107 -108 0
-76 -94 -107 108 0
72 124 135 -138 0
72 124 -135 138 0
72 -124 135 138 0
72 -124 -135 -138 0
-72 124 135 138 0
-72 124 -135 -138 0
-72 -124 135 -138 0
-72 -124 -135 138 0
3 64 127 -131 0
3 64 -127 131 0
3 -64 127 131 0
3 -64 -127 -131 0
-3 64 127 131 0
-3 64 -127 -131 0
-3 -64 127 -131 0
-3 -64 -127 131 0
55 95 139 140 0
55 95 -139 -140 0
55 -95 139 -140 0
55 -95 -139 140 0
-55 95 139 -140 0
-55 95 -139 140 0
-55 -95 139 140 0
-55 -95 -139 -140 0
27 92 117 -136 0
27 92 -117 136 0
27 -92 117 136 0
27 -92 -117 -136 0
-27 92 117 136 0
-27 92 -117 -136 0
-27 -92 117 -136 0
-27 -92 -117 136 0
4 12 141 -142 0
4 12 -141 142 0
4 -12 141 142 0
4 -12 -141 -142 0
-4 12 141 142 0
-4 12 -141 -142 0
-4 -12 141 -142 0
-4 -12 -141 142 0
42 83 93 -143 0
42 83 -93 143 0
42 -83 93 143 0
42 -83 -93 -143 0
-42 83 93 143 0
-42 83 -93 -143 0
-42 -83 93 -143 0
-42 -83 -93 143 0
69 73 109 118 0
69 73 -109 -118 0
69 -73 109 -118 0
69 -73 -109 118 0
-69 73 109 -118 0
-69 73 -109 118 0
-69 -73 109 118 0
-69 -73 -109 -118 0
70 133 140 -144 0
70 133 -140 144 0
70 -133 140 144 0
70 -133 -140 -144 0
-70 133 140 144 0
-70 133 -140 -144 0
-70 -133 140 -144 0
-70 -133 -140 144 0
74 77 90 -99 0
74 77 -90 99 0
74 -77 90 99 0
74 -77 -90 -99 0
-74 77 90 99 0
-74 77 -90 -99 0
-74 -77 90 -99 0
-74 -77 -90 99 0
78 110 115 128 0
78 110 -115 -128 0
78 -110 115 -128 0
78 -110 -115 128 0
-78 110 115 -128 0
-78 110 -115 128 0
-78 -110 115 128 0
-78 -110 -115 -128 0
19 67 134 -145 0
19 67 -134 145 0
19 -67 134 145 0
19 -67 -134 -145 0
-19 67 134 145 0
-19 67 -134 -145 0
-19 -67 134 -145 0
-19 -67 -134 145 0
130 132 146 147 0
130 132 -146 -147 0
130 -132 146 -147 0
130 -132 -146 147 0
-130 132 146 -147 0
-130 132 -146 147 0
-130 -132 146 147 0
-130 -132 -146 -147 0
38 50 100 -141 0
38 50 -100 141 0
38 -50 100 141 0
38 -50 -100 -141 0
-38 50 100 141 0
-38 50 -100 -141 0
-38 -50 100 -141 0
-38 -50 -100 141 0
84 96 142 148 0
84 96 -142 -148 0
84 -96 142 -148 0
84 -96 -142 148 0
-84 96 142 -148 0
-84 96 -142 148 0
-84 -96 142 148 0
-84 -96 -142 -148 0
39 68 143 -146 0
39 68 -143 146 0
39 -68 143 146 0
39 -68 -143 -146 0
-39 68 143 146 0
-39 68 -143 -146 0
-39 -68 143 -146 0
-39 -68 -143 146 0
43 51 145 -149 0
43 51 -145 149 0
43 -51 145 149 0
43 -51 -145 -149 0
-43 51 145 149 0
-43 51 -145 -149 0
-43 -51 145 -149 0
-43 -51 -145 149 0
31 61 149 150 0
31 61 -149 -150 0
31 -61 149 -150 0
31 -61 -149 150 0
-31 61 149 -150 0
-31 61 -149 150 0
-31 -61 149 150 0
-31 -61 -149 -150 0
8 23 148 150 0
8 23 -148 -150 0
8 -23 148 -150 0
8 -23 -148 150 0
-8 23 148 -150 0
-8 23 -148 150 0
-8 -23 148 150 0
-8 -23 -148 -150 0
71 85 144 -147 0
71 85 -144 147 0
71 -85 144 147 0
71 -85 -144 -147 0
-71 85 144 147 0
-71 85 -144 -147 0
-71 -85 144 -147 0
-71 -85 -144 147 0
